NumberOfClients,NumberOfVehicles,VehicleCapacity,ClientDemand
21-4-6000-[1100,700,800,1400,2100,400,800,100,500,600,1200,1300,1300,500,900,2100,1000,900,2500,1800,700]

DistanceMatrix:
0,0,0.00
0,1,49.04
0,2,46.52
0,3,41.01
0,4,39.05
0,5,32.02
0,6,31.00
0,7,27.02
0,8,24.04
0,9,21.02
0,10,17.00
0,11,16.03
0,12,11.00
0,13,16.03
0,14,7.07
0,15,19.03
0,16,9.06
0,17,22.02
0,18,19.03
0,19,26.02
0,20,30.02
0,21,33.02
1,0,49.04
1,1,0.00
1,2,8.06
1,3,21.02
1,4,23.02
1,5,17.03
1,6,18.03
1,7,22.02
1,8,25.02
1,9,28.02
1,10,32.02
1,11,33.02
1,12,47.01
1,13,50.00
1,14,56.01
1,15,56.01
1,16,58.01
1,17,71.01
1,18,71.01
1,19,75.01
1,20,79.01
1,21,82.01
2,0,46.52
2,1,8.06
2,2,0.00
2,3,29.02
2,4,31.02
2,5,14.00
2,6,15.00
2,7,19.03
2,8,22.02
2,9,25.02
2,10,29.02
2,11,30.02
2,12,44.00
2,13,47.01
2,14,53.01
2,15,53.01
2,16,55.01
2,17,68.01
2,18,68.01
2,19,72.01
2,20,76.01
2,21,79.01
3,0,41.01
3,1,21.02
3,2,29.02
3,3,0.00
3,4,2.00
3,5,33.02
3,6,16.03
3,7,12.04
3,8,15.03
3,9,18.03
3,10,22.02
3,11,23.02
3,12,37.01
3,13,40.01
3,14,46.01
3,15,46.01
3,16,48.01
3,17,61.01
3,18,61.01
3,19,65.01
3,20,69.01
3,21,72.01
4,0,39.05
4,1,23.02
4,2,31.02
4,3,2.00
4,4,0.00
4,5,35.01
4,6,18.03
4,7,14.00
4,8,17.03
4,9,20.02
4,10,24.02
4,11,25.02
4,12,39.01
4,13,42.01
4,14,48.01
4,15,48.01
4,16,50.00
4,17,63.01
4,18,63.01
4,19,67.01
4,20,71.01
4,21,74.01
5,0,32.02
5,1,17.03
5,2,14.00
5,3,33.02
5,4,35.01
5,5,0.00
5,6,17.03
5,7,5.00
5,8,8.06
5,9,11.00
5,10,15.03
5,11,16.03
5,12,30.02
5,13,33.02
5,14,39.05
5,15,39.05
5,16,41.01
5,17,54.01
5,18,54.01
5,19,58.01
5,20,62.01
5,21,65.01
6,0,31.00
6,1,18.03
6,2,15.00
6,3,16.03
6,4,18.03
6,5,17.03
6,6,0.00
6,7,15.03
6,8,7.07
6,9,10.00
6,10,14.00
6,11,15.03
6,12,29.02
6,13,32.02
6,14,38.01
6,15,38.01
6,16,40.01
6,17,53.01
6,18,53.01
6,19,57.01
6,20,61.01
6,21,64.01
7,0,27.02
7,1,22.02
7,2,19.03
7,3,12.04
7,4,14.00
7,5,5.00
7,6,15.03
7,7,0.00
7,8,19.03
7,9,6.00
7,10,10.00
7,11,11.00
7,12,25.02
7,13,28.02
7,14,34.00
7,15,34.00
7,16,36.01
7,17,49.04
7,18,49.04
7,19,53.01
7,20,57.01
7,21,60.01
8,0,24.04
8,1,25.02
8,2,22.02
8,3,15.03
8,4,17.03
8,5,8.06
8,6,7.07
8,7,19.03
8,8,0.00
8,9,13.00
8,10,7.07
8,11,8.06
8,12,22.02
8,13,25.02
8,14,31.02
8,15,31.02
8,16,33.02
8,17,46.01
8,18,46.01
8,19,50.00
8,20,54.01
8,21,57.01
9,0,21.02
9,1,28.02
9,2,25.02
9,3,18.03
9,4,20.02
9,5,11.00
9,6,10.00
9,7,6.00
9,8,13.00
9,9,0.00
9,10,16.03
9,11,15.03
9,12,19.03
9,13,22.02
9,14,28.02
9,15,28.02
9,16,30.02
9,17,43.01
9,18,43.01
9,19,47.01
9,20,51.01
9,21,54.01
10,0,17.00
10,1,32.02
10,2,29.02
10,3,22.02
10,4,24.02
10,5,15.03
10,6,14.00
10,7,10.00
10,8,7.07
10,9,16.03
10,10,0.00
10,11,1.00
10,12,15.03
10,13,18.03
10,14,24.02
10,15,24.02
10,16,26.02
10,17,39.05
10,18,39.05
10,19,43.01
10,20,47.01
10,21,50.00
11,0,16.03
11,1,33.02
11,2,30.02
11,3,23.02
11,4,25.02
11,5,16.03
11,6,15.03
11,7,11.00
11,8,8.06
11,9,15.03
11,10,1.00
11,11,0.00
11,12,14.00
11,13,17.03
11,14,23.02
11,15,23.02
11,16,25.02
11,17,38.01
11,18,38.01
11,19,42.01
11,20,46.01
11,21,49.04
12,0,11.00
12,1,47.01
12,2,44.00
12,3,37.01
12,4,39.01
12,5,30.02
12,6,29.02
12,7,25.02
12,8,22.02
12,9,19.03
12,10,15.03
12,11,14.00
12,12,0.00
12,13,3.00
12,14,9.06
12,15,9.06
12,16,11.00
12,17,24.02
12,18,24.02
12,19,28.02
12,20,32.02
12,21,35.01
13,0,16.03
13,1,50.00
13,2,47.01
13,3,40.01
13,4,42.01
13,5,33.02
13,6,32.02
13,7,28.02
13,8,25.02
13,9,22.02
13,10,18.03
13,11,17.03
13,12,3.00
13,13,0.00
13,14,6.00
13,15,6.00
13,16,8.06
13,17,21.02
13,18,21.02
13,19,25.02
13,20,29.02
13,21,32.02
14,0,7.07
14,1,56.01
14,2,53.01
14,3,46.01
14,4,48.01
14,5,39.05
14,6,38.01
14,7,34.00
14,8,31.02
14,9,28.02
14,10,24.02
14,11,23.02
14,12,9.06
14,13,6.00
14,14,0.00
14,15,18.03
14,16,2.00
14,17,15.03
14,18,15.03
14,19,19.03
14,20,23.02
14,21,26.02
15,0,19.03
15,1,56.01
15,2,53.01
15,3,46.01
15,4,48.01
15,5,39.05
15,6,38.01
15,7,34.00
15,8,31.02
15,9,28.02
15,10,24.02
15,11,23.02
15,12,9.06
15,13,6.00
15,14,18.03
15,15,0.00
15,16,20.02
15,17,15.03
15,18,15.03
15,19,19.03
15,20,23.02
15,21,26.02
16,0,9.06
16,1,58.01
16,2,55.01
16,3,48.01
16,4,50.00
16,5,41.01
16,6,40.01
16,7,36.01
16,8,33.02
16,9,30.02
16,10,26.02
16,11,25.02
16,12,11.00
16,13,8.06
16,14,2.00
16,15,20.02
16,16,0.00
16,17,13.00
16,18,13.00
16,19,17.03
16,20,21.02
16,21,24.02
17,0,22.02
17,1,71.01
17,2,68.01
17,3,61.01
17,4,63.01
17,5,54.01
17,6,53.01
17,7,49.04
17,8,46.01
17,9,43.01
17,10,39.05
17,11,38.01
17,12,24.02
17,13,21.02
17,14,15.03
17,15,15.03
17,16,13.00
17,17,0.00
17,18,0.00
17,19,4.00
17,20,8.06
17,21,11.00
18,0,19.03
18,1,71.01
18,2,68.01
18,3,61.01
18,4,63.01
18,5,54.01
18,6,53.01
18,7,49.04
18,8,46.01
18,9,43.01
18,10,39.05
18,11,38.01
18,12,24.02
18,13,21.02
18,14,15.03
18,15,15.03
18,16,13.00
18,17,0.00
18,18,0.00
18,19,4.00
18,20,8.06
18,21,11.00
19,0,26.02
19,1,75.01
19,2,72.01
19,3,65.01
19,4,67.01
19,5,58.01
19,6,57.01
19,7,53.01
19,8,50.00
19,9,47.01
19,10,43.01
19,11,42.01
19,12,28.02
19,13,25.02
19,14,19.03
19,15,19.03
19,16,17.03
19,17,4.00
19,18,4.00
19,19,0.00
19,20,4.00
19,21,7.07
20,0,30.02
20,1,79.01
20,2,76.01
20,3,69.01
20,4,71.01
20,5,62.01
20,6,61.01
20,7,57.01
20,8,54.01
20,9,51.01
20,10,47.01
20,11,46.01
20,12,32.02
20,13,29.02
20,14,23.02
20,15,23.02
20,16,21.02
20,17,8.06
20,18,8.06
20,19,4.00
20,20,0.00
20,21,3.00
21,0,33.02
21,1,82.01
21,2,79.01
21,3,72.01
21,4,74.01
21,5,65.01
21,6,64.01
21,7,60.01
21,8,57.01
21,9,54.01
21,10,50.00
21,11,49.04
21,12,35.01
21,13,32.02
21,14,26.02
21,15,26.02
21,16,24.02
21,17,11.00
21,18,11.00
21,19,7.07
21,20,3.00
21,21,0.00
